c defined variables: 33 34 35 36 37 38 39 40 41 42 43 44 45 46 47 48 49 50 51 52 53 54 55 56 57 58 59 60 61 62 63 64 65 66 67 68 69 70 71 72 73 74 75 76 77 78 79 80 81 82 83 84 85 86 87 88 89 90 91 92 93 94 95 96 97 98 99 100 101 102 103 104 105 106 107 108 109 110 111 112 113 114 115 116 117 118 119 120 121 122 123 124 125 126 127 128 129 130 131 132 133 134 135 136 137 138 139 140 141 142 143 144 145 146 147 148 149 150 151 152 153 154 155 156 157 158 159 160 161 162 163 164 165 166 167 194 197 198 199 200 201 202 203 204 205 206 207 208 209 210 211 212 213 214 215 216 217 218 219 220 221 222 223 224 225 226 227 228 229 230 231 232 233 234 235 236 237 238 239 240 241 242 243 244 246 247 248 249 251 252 253 255 256 257 258 260 261 262 263 264 265 266 267 268 269 270 271 272 273 274 275 276 277 278 279 280 281 282 283 284 285 286 287 288 289 290 291 292 293 294 295 296 297 298 299 300 301 302 303 304 305 306 307 308 309 310 311 312 313 314 315 316 317 318 319 320 321 322 323 324 325 326 327 328 329 330 331 
p cnf 1479 2253
a 1 2 3 4 5 6 7 8 9 10 11 12 13 14 15 16 17 18 19 20 21 22 23 24 25 26 27 28 29 30 31 32 174 175 176 177 178 179 180 181 182 183 184 185 186 187 188 189 190 191 0
e 33 34 35 36 37 38 39 40 41 42 43 44 45 46 47 48 49 50 51 52 53 54 55 56 57 58 59 60 61 62 63 64 65 66 67 68 69 70 71 72 73 74 75 76 77 78 79 80 81 82 83 84 85 86 87 88 89 90 91 92 93 94 95 96 97 98 99 100 101 102 103 104 105 106 107 108 109 110 111 112 113 114 115 116 117 118 119 120 121 122 123 124 125 126 127 128 129 130 131 132 133 134 135 136 137 138 139 140 141 142 143 144 145 146 147 148 149 150 151 152 153 154 155 156 157 158 159 160 161 162 163 164 165 166 167 194 197 198 199 200 201 202 203 204 205 206 207 208 209 210 211 212 213 214 215 216 217 218 219 220 221 222 223 224 225 226 227 228 229 230 231 232 233 234 235 236 237 238 239 240 241 242 243 244 246 247 248 249 251 252 253 255 256 257 258 260 261 262 263 264 265 266 267 268 269 270 271 272 273 274 275 276 277 278 279 280 281 282 283 284 285 286 287 288 289 290 291 292 293 294 295 296 297 298 299 300 301 302 303 304 305 306 307 308 309 310 311 312 313 314 315 316 317 318 319 320 321 322 323 324 325 326 327 328 329 330 331 1194 1195 1196 1197 1198 1199 1200 1201 1202 1203 1204 1205 1206 1207 1208 1209 1210 1211 1212 1213 1214 1215 1216 1217 1218 1219 1220 1221 1222 1223 1224 1225 1226 1227 1228 1229 1230 1231 1232 1233 1234 1235 1236 1237 1238 1239 1240 1241 1242 1243 1244 1245 1246 1247 1248 1249 1250 1251 1252 1253 1254 1255 1256 1257 1258 1259 1260 1261 1262 1263 1264 1265 1266 1267 1268 1269 1270 1271 1272 1273 1274 1275 1276 1277 1278 1279 1280 1281 1282 1283 1284 1285 1286 1287 1288 1289 1290 1291 1292 1293 1294 1295 1296 1297 1298 1299 1300 1301 1302 1303 1304 1305 1306 1307 1308 1309 1310 1311 1312 1313 1314 1315 1316 1317 1318 1319 1320 1321 1322 1323 1324 1325 1326 1327 1328 1329 1330 1331 1332 1333 1334 1335 1336 1337 1338 1339 1340 1341 1342 1343 1344 1345 1346 1347 1348 1349 1350 1351 1352 1353 1354 1355 1356 1357 1358 1359 1360 1361 1362 1363 1364 1365 1366 1367 1368 1369 1370 1371 1372 1373 1374 1375 1376 1377 1378 1379 1380 1381 1382 1383 1384 1385 1386 1387 1388 1389 1390 1391 1392 1393 1394 1395 1396 1397 1398 1399 1400 1401 1402 1403 1404 1405 1406 1407 1408 1409 1410 1411 1412 1413 1414 1415 1416 1417 1418 1419 1420 1421 1422 1423 1424 1425 1426 1427 1428 1429 1430 1431 1432 1433 1434 1435 1436 1437 1438 1439 1440 1441 1442 1443 1444 1445 1446 1447 1448 1449 1450 1451 1452 1453 1454 1455 1456 1457 1458 1459 1460 1461 1462 1463 1464 1465 1466 1467 1468 1469 1470 1471 1472 1473 1474 1475 1476 1477 1478 1479 0
d 168 184 185 186 187 188 189 190 191 0
d 169 184 185 186 187 188 189 190 191 0
d 170 174 175 0
d 171 176 177 178 179 180 181 182 183 0
d 172 176 177 178 179 180 181 182 183 0
d 173 176 177 178 179 180 181 182 183 0
d 192 1 2 3 4 5 6 7 8 9 10 11 12 13 14 15 16 17 18 19 20 21 22 23 24 25 26 27 28 29 30 31 32 174 175 176 177 178 179 180 181 182 183 184 185 186 187 188 189 190 191 0
d 193 1 2 3 4 5 6 7 8 9 10 11 12 13 14 15 16 17 18 19 20 21 22 23 24 25 26 27 28 29 30 31 32 174 175 176 177 178 179 180 181 182 183 184 185 186 187 188 189 190 191 0
d 195 1 2 3 4 5 6 7 8 9 10 11 12 13 14 15 16 17 18 19 20 21 22 23 24 25 26 27 28 29 30 31 32 174 175 176 177 178 179 180 181 182 183 184 185 186 187 188 189 190 191 0
d 196 1 2 3 4 5 6 7 8 9 10 11 12 13 14 15 16 17 18 19 20 21 22 23 24 25 26 27 28 29 30 31 32 174 175 176 177 178 179 180 181 182 183 184 185 186 187 188 189 190 191 0
d 245 1 2 3 4 5 6 7 8 9 10 11 12 13 14 15 16 17 18 19 20 21 22 23 24 25 26 27 28 29 30 31 32 174 175 176 177 178 179 180 181 182 183 184 185 186 187 188 189 190 191 0
d 250 1 2 3 4 5 6 7 8 9 10 11 12 13 14 15 16 17 18 19 20 21 22 23 24 25 26 27 28 29 30 31 32 174 175 176 177 178 179 180 181 182 183 184 185 186 187 188 189 190 191 0
d 254 1 2 3 4 5 6 7 8 9 10 11 12 13 14 15 16 17 18 19 20 21 22 23 24 25 26 27 28 29 30 31 32 174 175 176 177 178 179 180 181 182 183 184 185 186 187 188 189 190 191 0
d 259 1 2 3 4 5 6 7 8 9 10 11 12 13 14 15 16 17 18 19 20 21 22 23 24 25 26 27 28 29 30 31 32 174 175 176 177 178 179 180 181 182 183 184 185 186 187 188 189 190 191 0
1194 -33 0
-1194 33 0
1195 -34 0
-1195 34 0
-1196 -35 0
1196 35 0
1197 -36 0
-1197 36 0
1198 -37 0
-1198 37 0
-1199 -38 0
1199 38 0
1200 -39 0
-1200 39 0
1201 -40 0
-1201 40 0
-1202 -41 0
1202 41 0
-12 -42 0
12 42 0
-1203 -43 0
1203 43 0
-11 -44 0
11 44 0
-1204 -45 0
1204 45 0
-10 -46 0
10 46 0
-1205 -47 0
1205 47 0
-9 -48 0
9 48 0
-1206 -49 0
1206 49 0
-49 -50 0
49 50 0
1207 -51 0
-1207 51 0
1209 -52 0
-1209 52 0
1211 -53 0
-1211 53 0
-1214 -54 0
1214 54 0
1215 -55 0
-1215 55 0
1216 -56 0
-1216 56 0
-1217 -57 0
1217 57 0
1218 -58 0
-1218 58 0
1219 -59 0
-1219 59 0
1220 -60 0
-1220 60 0
1221 -61 0
-1221 61 0
-1222 -62 0
1222 62 0
1223 -63 0
-1223 63 0
1224 -64 0
-1224 64 0
-1225 -65 0
1225 65 0
1226 -66 0
-1226 66 0
1227 -67 0
-1227 67 0
-1228 -68 0
1228 68 0
1229 -69 0
-1229 69 0
1230 -70 0
-1230 70 0
-1231 -71 0
1231 71 0
-8 -72 0
8 72 0
-1232 -73 0
1232 73 0
-7 -74 0
7 74 0
-1233 -75 0
1233 75 0
-6 -76 0
6 76 0
-1234 -77 0
1234 77 0
-5 -78 0
5 78 0
-1235 -79 0
1235 79 0
-79 -80 0
79 80 0
1236 -81 0
-1236 81 0
1238 -82 0
-1238 82 0
1240 -83 0
-1240 83 0
-1243 -84 0
1243 84 0
1244 -85 0
-1244 85 0
1245 -86 0
-1245 86 0
-1246 -87 0
1246 87 0
1247 -88 0
-1247 88 0
1248 -89 0
-1248 89 0
1249 -90 0
-1249 90 0
1250 -91 0
-1250 91 0
-1251 -92 0
1251 92 0
1252 -93 0
-1252 93 0
1253 -94 0
-1253 94 0
-1254 -95 0
1254 95 0
1255 -96 0
-1255 96 0
1256 -97 0
-1256 97 0
-1257 -98 0
1257 98 0
1258 -99 0
-1258 99 0
1259 -100 0
-1259 100 0
-1260 -101 0
1260 101 0
-4 -102 0
4 102 0
-1261 -103 0
1261 103 0
-3 -104 0
3 104 0
-1262 -105 0
1262 105 0
-2 -106 0
2 106 0
-1263 -107 0
1263 107 0
-1 -108 0
1 108 0
-1264 -109 0
1264 109 0
-109 -110 0
109 110 0
1265 -111 0
-1265 111 0
1267 -112 0
-1267 112 0
1269 -113 0
-1269 113 0
-1272 -114 0
1272 114 0
1273 -115 0
-1273 115 0
1274 -116 0
-1274 116 0
-1275 -117 0
1275 117 0
1276 -118 0
-1276 118 0
1277 -119 0
-1277 119 0
1278 -120 0
-1278 120 0
1279 -121 0
-1279 121 0
-1280 -122 0
1280 122 0
1281 -123 0
-1281 123 0
1282 -124 0
-1282 124 0
-1283 -125 0
1283 125 0
1284 -126 0
-1284 126 0
1285 -127 0
-1285 127 0
-1286 -128 0
1286 128 0
1287 -129 0
-1287 129 0
1288 -130 0
-1288 130 0
-1289 -131 0
1289 131 0
-16 -132 0
16 132 0
-1290 -133 0
1290 133 0
-15 -134 0
15 134 0
-1291 -135 0
1291 135 0
-14 -136 0
14 136 0
-1292 -137 0
1292 137 0
-13 -138 0
13 138 0
-1293 -139 0
1293 139 0
-139 -140 0
139 140 0
1294 -141 0
-1294 141 0
1296 -142 0
-1296 142 0
1298 -143 0
-1298 143 0
-1301 -144 0
1301 144 0
1302 -145 0
-1302 145 0
1303 -146 0
-1303 146 0
-1304 -147 0
1304 147 0
1305 -148 0
-1305 148 0
1306 -149 0
-1306 149 0
-144 -150 0
144 150 0
-1307 -151 0
1307 151 0
-54 -152 0
54 152 0
-1308 -153 0
1308 153 0
-84 -154 0
84 154 0
-1309 -155 0
1309 155 0
-114 -156 0
114 156 0
-1310 -157 0
1310 157 0
-157 -158 0
157 158 0
1311 -159 0
-1311 159 0
1313 -160 0
-1313 160 0
1315 -161 0
-1315 161 0
-1318 -162 0
1318 162 0
1319 -163 0
-1319 163 0
1320 -164 0
-1320 164 0
-1321 -165 0
1321 165 0
1322 -166 0
-1322 166 0
1323 -167 0
-1323 167 0
-1324 -194 0
1324 194 0
-1325 -197 0
1325 197 0
1252 -198 0
-1252 198 0
1253 -199 0
-1253 199 0
-1326 -200 0
1326 200 0
1255 -201 0
-1255 201 0
1256 -202 0
-1256 202 0
-1327 -203 0
1327 203 0
1258 -204 0
-1258 204 0
1259 -205 0
-1259 205 0
-1328 -206 0
1328 206 0
-4 -207 0
4 207 0
-1329 -208 0
1329 208 0
-3 -209 0
3 209 0
-1330 -210 0
1330 210 0
-2 -211 0
2 211 0
-1331 -212 0
1331 212 0
-1 -213 0
1 213 0
-1332 -214 0
1332 214 0
-214 -215 0
214 215 0
1333 -216 0
-1333 216 0
1335 -217 0
-1335 217 0
1337 -218 0
-1337 218 0
-1340 -219 0
1340 219 0
1273 -220 0
-1273 220 0
1274 -221 0
-1274 221 0
-1341 -222 0
1341 222 0
1342 -223 0
-1342 223 0
1343 -224 0
-1343 224 0
1344 -225 0
-1344 225 0
1345 -226 0
-1345 226 0
-1346 -227 0
1346 227 0
1284 -228 0
-1284 228 0
1285 -229 0
-1285 229 0
-1347 -230 0
1347 230 0
1287 -231 0
-1287 231 0
1288 -232 0
-1288 232 0
-1348 -233 0
1348 233 0
-16 -234 0
16 234 0
-1349 -235 0
1349 235 0
-15 -236 0
15 236 0
-1350 -237 0
1350 237 0
-14 -238 0
14 238 0
-1351 -239 0
1351 239 0
-13 -240 0
13 240 0
-1352 -241 0
1352 241 0
-241 -242 0
241 242 0
1353 -243 0
-1353 243 0
1355 -244 0
-1355 244 0
-1358 -246 0
1358 246 0
1302 -247 0
-1302 247 0
1303 -248 0
-1303 248 0
-1359 -249 0
1359 249 0
1360 -251 0
-1360 251 0
-246 -252 0
246 252 0
-1361 -253 0
1361 253 0
-1362 -255 0
1362 255 0
-219 -256 0
219 256 0
-1363 -257 0
1363 257 0
-257 -258 0
257 258 0
1365 -260 0
-1365 260 0
1367 -261 0
-1367 261 0
-1370 -262 0
1370 262 0
1371 -263 0
-1371 263 0
1372 -264 0
-1372 264 0
-1373 -265 0
1373 265 0
1374 -266 0
-1374 266 0
1375 -267 0
-1375 267 0
1223 -268 0
-1223 268 0
1224 -269 0
-1224 269 0
-1376 -270 0
1376 270 0
1226 -271 0
-1226 271 0
1227 -272 0
-1227 272 0
-1377 -273 0
1377 273 0
1229 -274 0
-1229 274 0
1230 -275 0
-1230 275 0
-1378 -276 0
1378 276 0
-8 -277 0
8 277 0
-1379 -278 0
1379 278 0
-7 -279 0
7 279 0
-1380 -280 0
1380 280 0
-6 -281 0
6 281 0
-1381 -282 0
1381 282 0
-5 -283 0
5 283 0
-1382 -284 0
1382 284 0
1244 -285 0
-1244 285 0
1245 -286 0
-1245 286 0
-1383 -287 0
1383 287 0
1386 -288 0
-1386 288 0
1194 -289 0
-1194 289 0
1195 -290 0
-1195 290 0
-1387 -291 0
1387 291 0
1197 -292 0
-1197 292 0
1198 -293 0
-1198 293 0
-1388 -294 0
1388 294 0
1200 -295 0
-1200 295 0
1201 -296 0
-1201 296 0
-1389 -297 0
1389 297 0
-12 -298 0
12 298 0
-1390 -299 0
1390 299 0
-11 -300 0
11 300 0
-1391 -301 0
1391 301 0
-10 -302 0
10 302 0
-1392 -303 0
1392 303 0
-9 -304 0
9 304 0
-1393 -305 0
1393 305 0
1215 -306 0
-1215 306 0
1216 -307 0
-1216 307 0
-1394 -308 0
1394 308 0
1397 -309 0
-1397 309 0
1400 -310 0
-1400 310 0
1403 -311 0
-1403 311 0
1406 -312 0
-1406 312 0
1408 -313 0
-1408 313 0
1411 -314 0
-1411 314 0
1414 -315 0
-1414 315 0
1418 -316 0
-1418 316 0
1421 -317 0
-1421 317 0
-1425 -318 0
1425 318 0
1428 -319 0
-1428 319 0
1433 -320 0
-1433 320 0
-1436 -321 0
1436 321 0
1441 -322 0
-1441 322 0
1444 -323 0
-1444 323 0
1452 -324 0
-1452 324 0
1460 -325 0
-1460 325 0
1463 -326 0
-1463 326 0
1466 -327 0
-1466 327 0
-1470 -328 0
1470 328 0
-1473 -329 0
1473 329 0
-1476 -330 0
1476 330 0
1479 -331 0
-1479 331 0
-33 -11 0
-33 27 0
11 -27 33 0
-34 11 0
-34 -27 0
-11 27 34 0
-33 35 0
-34 35 0
-35 33 34 0
-36 -10 0
-36 26 0
10 -26 36 0
-37 10 0
-37 -26 0
-10 26 37 0
-36 38 0
-37 38 0
-38 36 37 0
-39 -9 0
-39 25 0
9 -25 39 0
-40 9 0
-40 -25 0
-9 25 40 0
-39 41 0
-40 41 0
-41 39 40 0
-12 -42 0
12 42 0
-42 43 0
-28 43 0
-43 42 28 0
-11 -44 0
11 44 0
-44 45 0
-27 45 0
-45 44 27 0
-10 -46 0
10 46 0
-46 47 0
-26 47 0
-47 46 26 0
-9 -48 0
9 48 0
-48 49 0
-25 49 0
-49 48 25 0
-49 -50 0
49 50 0
-51 -41 0
-51 -47 0
41 47 51 0
-52 -38 0
-52 -41 0
-52 -45 0
38 41 45 52 0
-53 -35 0
-53 -38 0
-53 -41 0
-53 -43 0
35 38 41 43 53 0
-50 54 0
-51 54 0
-52 54 0
-53 54 0
-54 50 51 52 53 0
-55 -12 0
-55 28 0
12 -28 55 0
-56 12 0
-56 -28 0
-12 28 56 0
-55 57 0
-56 57 0
-57 55 56 0
-58 -57 0
-58 -35 0
-58 -38 0
-58 -41 0
57 35 38 41 58 0
-59 -54 0
-59 -58 0
54 58 59 0
-60 -54 0
-60 59 0
54 -59 60 0
-61 54 0
-61 -59 0
-54 59 61 0
-60 62 0
-61 62 0
-62 60 61 0
-63 -7 0
-63 23 0
7 -23 63 0
-64 7 0
-64 -23 0
-7 23 64 0
-63 65 0
-64 65 0
-65 63 64 0
-66 -6 0
-66 22 0
6 -22 66 0
-67 6 0
-67 -22 0
-6 22 67 0
-66 68 0
-67 68 0
-68 66 67 0
-69 -5 0
-69 21 0
5 -21 69 0
-70 5 0
-70 -21 0
-5 21 70 0
-69 71 0
-70 71 0
-71 69 70 0
-8 -72 0
8 72 0
-72 73 0
-24 73 0
-73 72 24 0
-7 -74 0
7 74 0
-74 75 0
-23 75 0
-75 74 23 0
-6 -76 0
6 76 0
-76 77 0
-22 77 0
-77 76 22 0
-5 -78 0
5 78 0
-78 79 0
-21 79 0
-79 78 21 0
-79 -80 0
79 80 0
-81 -71 0
-81 -77 0
71 77 81 0
-82 -68 0
-82 -71 0
-82 -75 0
68 71 75 82 0
-83 -65 0
-83 -68 0
-83 -71 0
-83 -73 0
65 68 71 73 83 0
-80 84 0
-81 84 0
-82 84 0
-83 84 0
-84 80 81 82 83 0
-85 -8 0
-85 24 0
8 -24 85 0
-86 8 0
-86 -24 0
-8 24 86 0
-85 87 0
-86 87 0
-87 85 86 0
-88 -87 0
-88 -65 0
-88 -68 0
-88 -71 0
87 65 68 71 88 0
-89 -84 0
-89 -88 0
84 88 89 0
-90 -84 0
-90 89 0
84 -89 90 0
-91 84 0
-91 -89 0
-84 89 91 0
-90 92 0
-91 92 0
-92 90 91 0
-93 -3 0
-93 19 0
3 -19 93 0
-94 3 0
-94 -19 0
-3 19 94 0
-93 95 0
-94 95 0
-95 93 94 0
-96 -2 0
-96 18 0
2 -18 96 0
-97 2 0
-97 -18 0
-2 18 97 0
-96 98 0
-97 98 0
-98 96 97 0
-99 -1 0
-99 17 0
1 -17 99 0
-100 1 0
-100 -17 0
-1 17 100 0
-99 101 0
-100 101 0
-101 99 100 0
-4 -102 0
4 102 0
-102 103 0
-20 103 0
-103 102 20 0
-3 -104 0
3 104 0
-104 105 0
-19 105 0
-105 104 19 0
-2 -106 0
2 106 0
-106 107 0
-18 107 0
-107 106 18 0
-1 -108 0
1 108 0
-108 109 0
-17 109 0
-109 108 17 0
-109 -110 0
109 110 0
-111 -101 0
-111 -107 0
101 107 111 0
-112 -98 0
-112 -101 0
-112 -105 0
98 101 105 112 0
-113 -95 0
-113 -98 0
-113 -101 0
-113 -103 0
95 98 101 103 113 0
-110 114 0
-111 114 0
-112 114 0
-113 114 0
-114 110 111 112 113 0
-115 -4 0
-115 20 0
4 -20 115 0
-116 4 0
-116 -20 0
-4 20 116 0
-115 117 0
-116 117 0
-117 115 116 0
-118 -117 0
-118 -95 0
-118 -98 0
-118 -101 0
117 95 98 101 118 0
-119 -114 0
-119 -118 0
114 118 119 0
-120 -114 0
-120 119 0
114 -119 120 0
-121 114 0
-121 -119 0
-114 119 121 0
-120 122 0
-121 122 0
-122 120 121 0
-123 -15 0
-123 31 0
15 -31 123 0
-124 15 0
-124 -31 0
-15 31 124 0
-123 125 0
-124 125 0
-125 123 124 0
-126 -14 0
-126 30 0
14 -30 126 0
-127 14 0
-127 -30 0
-14 30 127 0
-126 128 0
-127 128 0
-128 126 127 0
-129 -13 0
-129 29 0
13 -29 129 0
-130 13 0
-130 -29 0
-13 29 130 0
-129 131 0
-130 131 0
-131 129 130 0
-16 -132 0
16 132 0
-132 133 0
-32 133 0
-133 132 32 0
-15 -134 0
15 134 0
-134 135 0
-31 135 0
-135 134 31 0
-14 -136 0
14 136 0
-136 137 0
-30 137 0
-137 136 30 0
-13 -138 0
13 138 0
-138 139 0
-29 139 0
-139 138 29 0
-139 -140 0
139 140 0
-141 -131 0
-141 -137 0
131 137 141 0
-142 -128 0
-142 -131 0
-142 -135 0
128 131 135 142 0
-143 -125 0
-143 -128 0
-143 -131 0
-143 -133 0
125 128 131 133 143 0
-140 144 0
-141 144 0
-142 144 0
-143 144 0
-144 140 141 142 143 0
-145 -16 0
-145 32 0
16 -32 145 0
-146 16 0
-146 -32 0
-16 32 146 0
-145 147 0
-146 147 0
-147 145 146 0
-148 -147 0
-148 -125 0
-148 -128 0
-148 -131 0
147 125 128 131 148 0
-149 -144 0
-149 -148 0
144 148 149 0
-144 -150 0
144 150 0
-150 151 0
-149 151 0
-151 150 149 0
-54 -152 0
54 152 0
-152 153 0
-59 153 0
-153 152 59 0
-84 -154 0
84 154 0
-154 155 0
-89 155 0
-155 154 89 0
-114 -156 0
114 156 0
-156 157 0
-119 157 0
-157 156 119 0
-157 -158 0
157 158 0
-159 -122 0
-159 -155 0
122 155 159 0
-160 -92 0
-160 -122 0
-160 -153 0
92 122 153 160 0
-161 -62 0
-161 -92 0
-161 -122 0
-161 -151 0
62 92 122 151 161 0
-158 162 0
-159 162 0
-160 162 0
-161 162 0
-162 158 159 160 161 0
-163 -144 0
-163 149 0
144 -149 163 0
-164 144 0
-164 -149 0
-144 149 164 0
-163 165 0
-164 165 0
-165 163 164 0
-166 -165 0
-166 -62 0
-166 -92 0
-166 -122 0
165 62 92 122 166 0
-167 -162 0
-167 -166 0
162 166 167 0
-192 -169 0
-192 168 0
169 -168 192 0
-193 169 0
-193 -168 0
-169 168 193 0
-192 194 0
-193 194 0
-194 192 193 0
-195 -172 0
-195 173 0
172 -173 195 0
-196 172 0
-196 -173 0
-172 173 196 0
-195 197 0
-196 197 0
-197 195 196 0
-198 -3 0
-198 19 0
3 -19 198 0
-199 3 0
-199 -19 0
-3 19 199 0
-198 200 0
-199 200 0
-200 198 199 0
-201 -2 0
-201 18 0
2 -18 201 0
-202 2 0
-202 -18 0
-2 18 202 0
-201 203 0
-202 203 0
-203 201 202 0
-204 -1 0
-204 17 0
1 -17 204 0
-205 1 0
-205 -17 0
-1 17 205 0
-204 206 0
-205 206 0
-206 204 205 0
-4 -207 0
4 207 0
-207 208 0
-20 208 0
-208 207 20 0
-3 -209 0
3 209 0
-209 210 0
-19 210 0
-210 209 19 0
-2 -211 0
2 211 0
-211 212 0
-18 212 0
-212 211 18 0
-1 -213 0
1 213 0
-213 214 0
-17 214 0
-214 213 17 0
-214 -215 0
214 215 0
-216 -206 0
-216 -212 0
206 212 216 0
-217 -203 0
-217 -206 0
-217 -210 0
203 206 210 217 0
-218 -200 0
-218 -203 0
-218 -206 0
-218 -208 0
200 203 206 208 218 0
-215 219 0
-216 219 0
-217 219 0
-218 219 0
-219 215 216 217 218 0
-220 -4 0
-220 20 0
4 -20 220 0
-221 4 0
-221 -20 0
-4 20 221 0
-220 222 0
-221 222 0
-222 220 221 0
-223 -222 0
-223 -200 0
-223 -203 0
-223 -206 0
222 200 203 206 223 0
-224 -219 0
-224 -223 0
219 223 224 0
-225 -219 0
-225 224 0
219 -224 225 0
-226 219 0
-226 -224 0
-219 224 226 0
-225 227 0
-226 227 0
-227 225 226 0
-228 -14 0
-228 30 0
14 -30 228 0
-229 14 0
-229 -30 0
-14 30 229 0
-228 230 0
-229 230 0
-230 228 229 0
-231 -13 0
-231 29 0
13 -29 231 0
-232 13 0
-232 -29 0
-13 29 232 0
-231 233 0
-232 233 0
-233 231 232 0
-16 -234 0
16 234 0
-234 235 0
-32 235 0
-235 234 32 0
-15 -236 0
15 236 0
-236 237 0
-31 237 0
-237 236 31 0
-14 -238 0
14 238 0
-238 239 0
-30 239 0
-239 238 30 0
-13 -240 0
13 240 0
-240 241 0
-29 241 0
-241 240 29 0
-241 -242 0
241 242 0
-243 -233 0
-243 -239 0
233 239 243 0
-244 -230 0
-244 -233 0
-244 -237 0
230 233 237 244 0
-245 -170 0
-245 -230 0
-245 -233 0
-245 -235 0
170 230 233 235 245 0
-242 246 0
-243 246 0
-244 246 0
-245 246 0
-246 242 243 244 245 0
-247 -16 0
-247 32 0
16 -32 247 0
-248 16 0
-248 -32 0
-16 32 248 0
-247 249 0
-248 249 0
-249 247 248 0
-250 -249 0
-250 -170 0
-250 -230 0
-250 -233 0
249 170 230 233 250 0
-251 -246 0
-251 -250 0
246 250 251 0
-246 -252 0
246 252 0
-252 253 0
-251 253 0
-253 252 251 0
-169 -254 0
169 254 0
-254 255 0
-168 255 0
-255 254 168 0
-219 -256 0
219 256 0
-256 257 0
-224 257 0
-257 256 224 0
-257 -258 0
257 258 0
-259 -227 0
-259 -171 0
227 171 259 0
-260 -197 0
-260 -227 0
-260 -255 0
197 227 255 260 0
-261 -194 0
-261 -197 0
-261 -227 0
-261 -253 0
194 197 227 253 261 0
-258 262 0
-259 262 0
-260 262 0
-261 262 0
-262 258 259 260 261 0
-263 -246 0
-263 251 0
246 -251 263 0
-264 246 0
-264 -251 0
-246 251 264 0
-263 265 0
-264 265 0
-265 263 264 0
-266 -265 0
-266 -194 0
-266 -197 0
-266 -227 0
265 194 197 227 266 0
-267 -262 0
-267 -266 0
262 266 267 0
-268 -7 0
-268 23 0
7 -23 268 0
-269 7 0
-269 -23 0
-7 23 269 0
-268 270 0
-269 270 0
-270 268 269 0
-271 -6 0
-271 22 0
6 -22 271 0
-272 6 0
-272 -22 0
-6 22 272 0
-271 273 0
-272 273 0
-273 271 272 0
-274 -5 0
-274 21 0
5 -21 274 0
-275 5 0
-275 -21 0
-5 21 275 0
-274 276 0
-275 276 0
-276 274 275 0
-8 -277 0
8 277 0
-277 278 0
-24 278 0
-278 277 24 0
-7 -279 0
7 279 0
-279 280 0
-23 280 0
-280 279 23 0
-6 -281 0
6 281 0
-281 282 0
-22 282 0
-282 281 22 0
-5 -283 0
5 283 0
-283 284 0
-21 284 0
-284 283 21 0
-285 -8 0
-285 24 0
8 -24 285 0
-286 8 0
-286 -24 0
-8 24 286 0
-285 287 0
-286 287 0
-287 285 286 0
-288 -287 0
-288 -270 0
-288 -273 0
-288 -276 0
287 270 273 276 288 0
-289 -11 0
-289 27 0
11 -27 289 0
-290 11 0
-290 -27 0
-11 27 290 0
-289 291 0
-290 291 0
-291 289 290 0
-292 -10 0
-292 26 0
10 -26 292 0
-293 10 0
-293 -26 0
-10 26 293 0
-292 294 0
-293 294 0
-294 292 293 0
-295 -9 0
-295 25 0
9 -25 295 0
-296 9 0
-296 -25 0
-9 25 296 0
-295 297 0
-296 297 0
-297 295 296 0
-12 -298 0
12 298 0
-298 299 0
-28 299 0
-299 298 28 0
-11 -300 0
11 300 0
-300 301 0
-27 301 0
-301 300 27 0
-10 -302 0
10 302 0
-302 303 0
-26 303 0
-303 302 26 0
-9 -304 0
9 304 0
-304 305 0
-25 305 0
-305 304 25 0
-306 -12 0
-306 28 0
12 -28 306 0
-307 12 0
-307 -28 0
-12 28 307 0
-306 308 0
-307 308 0
-308 306 307 0
-309 -308 0
-309 -291 0
-309 -294 0
-309 -297 0
308 291 294 297 309 0
-310 -167 267 0
-310 167 -267 0
310 -167 -267 0
310 167 267 0
-311 -166 266 0
-311 166 -266 0
311 -166 -266 0
311 166 266 0
-312 -162 262 0
-312 162 -262 0
312 -162 -262 0
312 162 262 0
-310 -311 -312 313 0
-313 310 0
-313 311 0
-313 312 0
-15 -174 -314 0
-15 174 314 0
15 -174 314 0
15 174 -314 0
-31 -175 -315 0
-31 175 315 0
31 -175 315 0
31 175 -315 0
-270 -176 -316 0
-270 176 316 0
270 -176 316 0
270 176 -316 0
-273 -177 -317 0
-273 177 317 0
273 -177 317 0
273 177 -317 0
-276 -178 -318 0
-276 178 318 0
276 -178 318 0
276 178 -318 0
-278 -179 -319 0
-278 179 319 0
278 -179 319 0
278 179 -319 0
-280 -180 -320 0
-280 180 320 0
280 -180 320 0
280 180 -320 0
-282 -181 -321 0
-282 181 321 0
282 -181 321 0
282 181 -321 0
-284 -182 -322 0
-284 182 322 0
284 -182 322 0
284 182 -322 0
-288 -183 -323 0
-288 183 323 0
288 -183 323 0
288 183 -323 0
-291 -184 -324 0
-291 184 324 0
291 -184 324 0
291 184 -324 0
-294 -185 -325 0
-294 185 325 0
294 -185 325 0
294 185 -325 0
-297 -186 -326 0
-297 186 326 0
297 -186 326 0
297 186 -326 0
-299 -187 -327 0
-299 187 327 0
299 -187 327 0
299 187 -327 0
-301 -188 -328 0
-301 188 328 0
301 -188 328 0
301 188 -328 0
-303 -189 -329 0
-303 189 329 0
303 -189 329 0
303 189 -329 0
-305 -190 -330 0
-305 190 330 0
305 -190 330 0
305 190 -330 0
-309 -191 -331 0
-309 191 331 0
309 -191 331 0
309 191 -331 0
314 315 316 317 318 319 320 321 322 323 324 325 326 327 328 329 330 331 313 0
-11 -1194 0
27 -1194 0
11 -27 1194 0
11 -1195 0
-27 -1195 0
-11 27 1195 0
-33 -1196 0
-34 -1196 0
33 34 1196 0
-10 -1197 0
26 -1197 0
10 -26 1197 0
10 -1198 0
-26 -1198 0
-10 26 1198 0
-36 -1199 0
-37 -1199 0
36 37 1199 0
-9 -1200 0
25 -1200 0
9 -25 1200 0
9 -1201 0
-25 -1201 0
-9 25 1201 0
-39 -1202 0
-40 -1202 0
39 40 1202 0
-28 -1203 0
-42 -1203 0
28 42 1203 0
-27 -1204 0
-44 -1204 0
27 44 1204 0
-26 -1205 0
-46 -1205 0
26 46 1205 0
-25 -1206 0
-48 -1206 0
25 48 1206 0
-41 -1207 0
-47 -1207 0
41 47 1207 0
-38 -1208 0
-41 -1208 0
38 41 1208 0
-45 -1209 0
1208 -1209 0
45 -1208 1209 0
-35 -1210 0
1208 -1210 0
35 -1208 1210 0
-43 -1211 0
1210 -1211 0
43 -1210 1211 0
-50 -1212 0
-51 -1212 0
50 51 1212 0
-52 -1213 0
-53 -1213 0
52 53 1213 0
1212 -1214 0
1213 -1214 0
-1212 -1213 1214 0
-12 -1215 0
28 -1215 0
12 -28 1215 0
12 -1216 0
-28 -1216 0
-12 28 1216 0
-55 -1217 0
-56 -1217 0
55 56 1217 0
-57 -1218 0
1210 -1218 0
57 -1210 1218 0
-54 -1219 0
-58 -1219 0
54 58 1219 0
-54 -1220 0
59 -1220 0
54 -59 1220 0
54 -1221 0
-59 -1221 0
-54 59 1221 0
-60 -1222 0
-61 -1222 0
60 61 1222 0
-7 -1223 0
23 -1223 0
7 -23 1223 0
7 -1224 0
-23 -1224 0
-7 23 1224 0
-63 -1225 0
-64 -1225 0
63 64 1225 0
-6 -1226 0
22 -1226 0
6 -22 1226 0
6 -1227 0
-22 -1227 0
-6 22 1227 0
-66 -1228 0
-67 -1228 0
66 67 1228 0
-5 -1229 0
21 -1229 0
5 -21 1229 0
5 -1230 0
-21 -1230 0
-5 21 1230 0
-69 -1231 0
-70 -1231 0
69 70 1231 0
-24 -1232 0
-72 -1232 0
24 72 1232 0
-23 -1233 0
-74 -1233 0
23 74 1233 0
-22 -1234 0
-76 -1234 0
22 76 1234 0
-21 -1235 0
-78 -1235 0
21 78 1235 0
-71 -1236 0
-77 -1236 0
71 77 1236 0
-68 -1237 0
-71 -1237 0
68 71 1237 0
-75 -1238 0
1237 -1238 0
75 -1237 1238 0
-65 -1239 0
1237 -1239 0
65 -1237 1239 0
-73 -1240 0
1239 -1240 0
73 -1239 1240 0
-80 -1241 0
-81 -1241 0
80 81 1241 0
-82 -1242 0
-83 -1242 0
82 83 1242 0
1241 -1243 0
1242 -1243 0
-1241 -1242 1243 0
-8 -1244 0
24 -1244 0
8 -24 1244 0
8 -1245 0
-24 -1245 0
-8 24 1245 0
-85 -1246 0
-86 -1246 0
85 86 1246 0
-87 -1247 0
1239 -1247 0
87 -1239 1247 0
-84 -1248 0
-88 -1248 0
84 88 1248 0
-84 -1249 0
89 -1249 0
84 -89 1249 0
84 -1250 0
-89 -1250 0
-84 89 1250 0
-90 -1251 0
-91 -1251 0
90 91 1251 0
-3 -1252 0
19 -1252 0
3 -19 1252 0
3 -1253 0
-19 -1253 0
-3 19 1253 0
-93 -1254 0
-94 -1254 0
93 94 1254 0
-2 -1255 0
18 -1255 0
2 -18 1255 0
2 -1256 0
-18 -1256 0
-2 18 1256 0
-96 -1257 0
-97 -1257 0
96 97 1257 0
-1 -1258 0
17 -1258 0
1 -17 1258 0
1 -1259 0
-17 -1259 0
-1 17 1259 0
-99 -1260 0
-100 -1260 0
99 100 1260 0
-20 -1261 0
-102 -1261 0
20 102 1261 0
-19 -1262 0
-104 -1262 0
19 104 1262 0
-18 -1263 0
-106 -1263 0
18 106 1263 0
-17 -1264 0
-108 -1264 0
17 108 1264 0
-101 -1265 0
-107 -1265 0
101 107 1265 0
-98 -1266 0
-101 -1266 0
98 101 1266 0
-105 -1267 0
1266 -1267 0
105 -1266 1267 0
-95 -1268 0
1266 -1268 0
95 -1266 1268 0
-103 -1269 0
1268 -1269 0
103 -1268 1269 0
-110 -1270 0
-111 -1270 0
110 111 1270 0
-112 -1271 0
-113 -1271 0
112 113 1271 0
1270 -1272 0
1271 -1272 0
-1270 -1271 1272 0
-4 -1273 0
20 -1273 0
4 -20 1273 0
4 -1274 0
-20 -1274 0
-4 20 1274 0
-115 -1275 0
-116 -1275 0
115 116 1275 0
-117 -1276 0
1268 -1276 0
117 -1268 1276 0
-114 -1277 0
-118 -1277 0
114 118 1277 0
-114 -1278 0
119 -1278 0
114 -119 1278 0
114 -1279 0
-119 -1279 0
-114 119 1279 0
-120 -1280 0
-121 -1280 0
120 121 1280 0
-15 -1281 0
31 -1281 0
15 -31 1281 0
15 -1282 0
-31 -1282 0
-15 31 1282 0
-123 -1283 0
-124 -1283 0
123 124 1283 0
-14 -1284 0
30 -1284 0
14 -30 1284 0
14 -1285 0
-30 -1285 0
-14 30 1285 0
-126 -1286 0
-127 -1286 0
126 127 1286 0
-13 -1287 0
29 -1287 0
13 -29 1287 0
13 -1288 0
-29 -1288 0
-13 29 1288 0
-129 -1289 0
-130 -1289 0
129 130 1289 0
-32 -1290 0
-132 -1290 0
32 132 1290 0
-31 -1291 0
-134 -1291 0
31 134 1291 0
-30 -1292 0
-136 -1292 0
30 136 1292 0
-29 -1293 0
-138 -1293 0
29 138 1293 0
-131 -1294 0
-137 -1294 0
131 137 1294 0
-128 -1295 0
-131 -1295 0
128 131 1295 0
-135 -1296 0
1295 -1296 0
135 -1295 1296 0
-125 -1297 0
1295 -1297 0
125 -1295 1297 0
-133 -1298 0
1297 -1298 0
133 -1297 1298 0
-140 -1299 0
-141 -1299 0
140 141 1299 0
-142 -1300 0
-143 -1300 0
142 143 1300 0
1299 -1301 0
1300 -1301 0
-1299 -1300 1301 0
-16 -1302 0
32 -1302 0
16 -32 1302 0
16 -1303 0
-32 -1303 0
-16 32 1303 0
-145 -1304 0
-146 -1304 0
145 146 1304 0
-147 -1305 0
1297 -1305 0
147 -1297 1305 0
-144 -1306 0
-148 -1306 0
144 148 1306 0
-149 -1307 0
-150 -1307 0
149 150 1307 0
-59 -1308 0
-152 -1308 0
59 152 1308 0
-89 -1309 0
-154 -1309 0
89 154 1309 0
-119 -1310 0
-156 -1310 0
119 156 1310 0
-122 -1311 0
-155 -1311 0
122 155 1311 0
-92 -1312 0
-122 -1312 0
92 122 1312 0
-153 -1313 0
1312 -1313 0
153 -1312 1313 0
-62 -1314 0
1312 -1314 0
62 -1312 1314 0
-151 -1315 0
1314 -1315 0
151 -1314 1315 0
-158 -1316 0
-159 -1316 0
158 159 1316 0
-160 -1317 0
-161 -1317 0
160 161 1317 0
1316 -1318 0
1317 -1318 0
-1316 -1317 1318 0
-144 -1319 0
149 -1319 0
144 -149 1319 0
144 -1320 0
-149 -1320 0
-144 149 1320 0
-163 -1321 0
-164 -1321 0
163 164 1321 0
-165 -1322 0
1314 -1322 0
165 -1314 1322 0
-162 -1323 0
-166 -1323 0
162 166 1323 0
-192 -1324 0
-193 -1324 0
192 193 1324 0
-195 -1325 0
-196 -1325 0
195 196 1325 0
-198 -1326 0
-199 -1326 0
198 199 1326 0
-201 -1327 0
-202 -1327 0
201 202 1327 0
-204 -1328 0
-205 -1328 0
204 205 1328 0
-20 -1329 0
-207 -1329 0
20 207 1329 0
-19 -1330 0
-209 -1330 0
19 209 1330 0
-18 -1331 0
-211 -1331 0
18 211 1331 0
-17 -1332 0
-213 -1332 0
17 213 1332 0
-206 -1333 0
-212 -1333 0
206 212 1333 0
-203 -1334 0
-206 -1334 0
203 206 1334 0
-210 -1335 0
1334 -1335 0
210 -1334 1335 0
-200 -1336 0
1334 -1336 0
200 -1334 1336 0
-208 -1337 0
1336 -1337 0
208 -1336 1337 0
-215 -1338 0
-216 -1338 0
215 216 1338 0
-217 -1339 0
-218 -1339 0
217 218 1339 0
1338 -1340 0
1339 -1340 0
-1338 -1339 1340 0
-220 -1341 0
-221 -1341 0
220 221 1341 0
-222 -1342 0
1336 -1342 0
222 -1336 1342 0
-219 -1343 0
-223 -1343 0
219 223 1343 0
-219 -1344 0
224 -1344 0
219 -224 1344 0
219 -1345 0
-224 -1345 0
-219 224 1345 0
-225 -1346 0
-226 -1346 0
225 226 1346 0
-228 -1347 0
-229 -1347 0
228 229 1347 0
-231 -1348 0
-232 -1348 0
231 232 1348 0
-32 -1349 0
-234 -1349 0
32 234 1349 0
-31 -1350 0
-236 -1350 0
31 236 1350 0
-30 -1351 0
-238 -1351 0
30 238 1351 0
-29 -1352 0
-240 -1352 0
29 240 1352 0
-233 -1353 0
-239 -1353 0
233 239 1353 0
-230 -1354 0
-233 -1354 0
230 233 1354 0
-237 -1355 0
1354 -1355 0
237 -1354 1355 0
-242 -1356 0
-243 -1356 0
242 243 1356 0
-244 -1357 0
-245 -1357 0
244 245 1357 0
1356 -1358 0
1357 -1358 0
-1356 -1357 1358 0
-247 -1359 0
-248 -1359 0
247 248 1359 0
-246 -1360 0
-250 -1360 0
246 250 1360 0
-251 -1361 0
-252 -1361 0
251 252 1361 0
193 -1362 0
-254 -1362 0
-193 254 1362 0
-224 -1363 0
-256 -1363 0
224 256 1363 0
-197 -1364 0
-227 -1364 0
197 227 1364 0
-255 -1365 0
1364 -1365 0
255 -1364 1365 0
-194 -1366 0
1364 -1366 0
194 -1364 1366 0
-253 -1367 0
1366 -1367 0
253 -1366 1367 0
-258 -1368 0
-259 -1368 0
258 259 1368 0
-260 -1369 0
-261 -1369 0
260 261 1369 0
1368 -1370 0
1369 -1370 0
-1368 -1369 1370 0
-246 -1371 0
251 -1371 0
246 -251 1371 0
246 -1372 0
-251 -1372 0
-246 251 1372 0
-263 -1373 0
-264 -1373 0
263 264 1373 0
-265 -1374 0
1366 -1374 0
265 -1366 1374 0
-262 -1375 0
-266 -1375 0
262 266 1375 0
-268 -1376 0
-269 -1376 0
268 269 1376 0
-271 -1377 0
-272 -1377 0
271 272 1377 0
-274 -1378 0
-275 -1378 0
274 275 1378 0
-24 -1379 0
-277 -1379 0
24 277 1379 0
-23 -1380 0
-279 -1380 0
23 279 1380 0
-22 -1381 0
-281 -1381 0
22 281 1381 0
-21 -1382 0
-283 -1382 0
21 283 1382 0
-285 -1383 0
-286 -1383 0
285 286 1383 0
-270 -1384 0
-273 -1384 0
270 273 1384 0
-276 -1385 0
-287 -1385 0
276 287 1385 0
1384 -1386 0
1385 -1386 0
-1384 -1385 1386 0
-289 -1387 0
-290 -1387 0
289 290 1387 0
-292 -1388 0
-293 -1388 0
292 293 1388 0
-295 -1389 0
-296 -1389 0
295 296 1389 0
-28 -1390 0
-298 -1390 0
28 298 1390 0
-27 -1391 0
-300 -1391 0
27 300 1391 0
-26 -1392 0
-302 -1392 0
26 302 1392 0
-25 -1393 0
-304 -1393 0
25 304 1393 0
-306 -1394 0
-307 -1394 0
306 307 1394 0
-291 -1395 0
-294 -1395 0
291 294 1395 0
-297 -1396 0
-308 -1396 0
297 308 1396 0
1395 -1397 0
1396 -1397 0
-1395 -1396 1397 0
167 -1398 0
-267 -1398 0
-167 267 1398 0
-167 -1399 0
267 -1399 0
167 -267 1399 0
-1398 -1400 0
-1399 -1400 0
1398 1399 1400 0
166 -1401 0
-266 -1401 0
-166 266 1401 0
-166 -1402 0
266 -1402 0
166 -266 1402 0
-1401 -1403 0
-1402 -1403 0
1401 1402 1403 0
162 -1404 0
-262 -1404 0
-162 262 1404 0
-162 -1405 0
262 -1405 0
162 -262 1405 0
-1404 -1406 0
-1405 -1406 0
1404 1405 1406 0
310 -1407 0
311 -1407 0
-310 -311 1407 0
312 -1408 0
1407 -1408 0
-312 -1407 1408 0
-15 -1409 0
-174 -1409 0
15 174 1409 0
15 -1410 0
174 -1410 0
-15 -174 1410 0
-1409 -1411 0
-1410 -1411 0
1409 1410 1411 0
-31 -1412 0
-175 -1412 0
31 175 1412 0
31 -1413 0
175 -1413 0
-31 -175 1413 0
-1412 -1414 0
-1413 -1414 0
1412 1413 1414 0
176 -1415 0
-269 -1415 0
-176 269 1415 0
-270 -1416 0
-1415 -1416 0
270 1415 1416 0
176 -1417 0
270 -1417 0
-176 -270 1417 0
-1416 -1418 0
-1417 -1418 0
1416 1417 1418 0
-177 -1419 0
-273 -1419 0
177 273 1419 0
177 -1420 0
273 -1420 0
-177 -273 1420 0
-1419 -1421 0
-1420 -1421 0
1419 1420 1421 0
178 -1422 0
-276 -1422 0
-178 276 1422 0
-178 -1423 0
276 -1423 0
178 -276 1423 0
-1378 -1424 0
1423 -1424 0
1378 -1423 1424 0
-1422 -1425 0
-1424 -1425 0
1422 1424 1425 0
-179 -1426 0
-278 -1426 0
179 278 1426 0
179 -1427 0
278 -1427 0
-179 -278 1427 0
-1426 -1428 0
-1427 -1428 0
1426 1427 1428 0
-180 -1429 0
280 -1429 0
180 -280 1429 0
-1224 -1430 0
-1429 -1430 0
1224 1429 1430 0
180 -1431 0
-280 -1431 0
-180 280 1431 0
1224 -1432 0
-1431 -1432 0
-1224 1431 1432 0
-1430 -1433 0
-1432 -1433 0
1430 1432 1433 0
-181 -1434 0
-1227 -1434 0
181 1227 1434 0
181 -1435 0
1227 -1435 0
-181 -1227 1435 0
-1434 -1436 0
-1435 -1436 0
1434 1435 1436 0
-182 -1437 0
284 -1437 0
182 -284 1437 0
-1230 -1438 0
-1437 -1438 0
1230 1437 1438 0
182 -1439 0
-284 -1439 0
-182 284 1439 0
1230 -1440 0
-1439 -1440 0
-1230 1439 1440 0
-1438 -1441 0
-1440 -1441 0
1438 1440 1441 0
-183 -1442 0
-288 -1442 0
183 288 1442 0
183 -1443 0
288 -1443 0
-183 -288 1443 0
-1442 -1444 0
-1443 -1444 0
1442 1443 1444 0
-184 -1445 0
291 -1445 0
184 -291 1445 0
27 -1446 0
33 -1446 0
-27 -33 1446 0
-1195 -1447 0
-1446 -1447 0
1195 1446 1447 0
-1445 -1448 0
-1447 -1448 0
1445 1447 1448 0
184 -1449 0
-291 -1449 0
-184 291 1449 0
-1194 -1450 0
-1195 -1450 0
1194 1195 1450 0
-1449 -1451 0
1450 -1451 0
1449 -1450 1451 0
-1448 -1452 0
-1451 -1452 0
1448 1451 1452 0
-292 -1453 0
-1198 -1453 0
292 1198 1453 0
294 -1454 0
-1453 -1454 0
-294 1453 1454 0
-185 -1455 0
-1454 -1455 0
185 1454 1455 0
-294 -1456 0
-1198 -1456 0
294 1198 1456 0
185 -1457 0
-1456 -1457 0
-185 1456 1457 0
-26 -1458 0
292 -1458 0
26 -292 1458 0
-1457 -1459 0
-1458 -1459 0
1457 1458 1459 0
-1455 -1460 0
1459 -1460 0
1455 -1459 1460 0
-186 -1461 0
-297 -1461 0
186 297 1461 0
186 -1462 0
297 -1462 0
-186 -297 1462 0
-1461 -1463 0
-1462 -1463 0
1461 1462 1463 0
-187 -1464 0
-299 -1464 0
187 299 1464 0
187 -1465 0
299 -1465 0
-187 -299 1465 0
-1464 -1466 0
-1465 -1466 0
1464 1465 1466 0
-27 -1467 0
188 -1467 0
27 -188 1467 0
-301 -1468 0
1467 -1468 0
301 -1467 1468 0
-188 -1469 0
301 -1469 0
188 -301 1469 0
-1468 -1470 0
-1469 -1470 0
1468 1469 1470 0
-189 -1471 0
-1198 -1471 0
189 1198 1471 0
189 -1472 0
1198 -1472 0
-189 -1198 1472 0
-1471 -1473 0
-1472 -1473 0
1471 1472 1473 0
-190 -1474 0
-1201 -1474 0
190 1201 1474 0
190 -1475 0
1201 -1475 0
-190 -1201 1475 0
-1474 -1476 0
-1475 -1476 0
1474 1475 1476 0
-191 -1477 0
-309 -1477 0
191 309 1477 0
191 -1478 0
309 -1478 0
-191 -309 1478 0
-1477 -1479 0
-1478 -1479 0
1477 1478 1479 0
